S = 6;
start = [|0,20,16,0,0,0,21,0,0,0,0,0,0,0,0,0,0,0,2,9,0,0,0,0,0,0,0,0,0,0,0,0,0,32,0,0|
0,0,0,34,33,29,35,0,27,0,32,0,0,17,0,0,0,0,0,23,0,19,15,0,0,10,0,0,0,0,0,7,11,8,0,3|
3,0,0,12,11,0,0,0,0,0,6,0,0,0,0,0,0,28,26,0,0,0,0,0,16,0,0,20,0,15,14,0,0,0,0,0|
0,0,14,0,0,0,23,0,15,0,20,0,6,0,0,0,0,0,0,0,0,0,0,0,0,0,0,0,0,0,34,0,0,36,0,0|
0,0,0,0,0,0,0,0,0,0,0,0,0,0,34,0,0,0,28,0,0,0,0,0,0,22,0,0,17,0,0,0,23,0,24,0|
0,0,0,36,35,0,0,0,0,0,0,0,0,0,0,15,0,0,0,0,0,0,0,0,4,12,0,0,0,0,2,0,9,0,0,0|
0,0,0,0,0,9,0,0,5,0,4,0,0,0,0,0,0,0,0,0,0,0,29,0,0,0,19,0,0,0,0,0,0,16,14,0|
5,0,0,2,1,0,7,0,0,0,0,0,28,0,26,0,0,0,0,0,0,0,0,0,18,0,13,0,0,0,0,0,0,0,0,0|
0,0,0,0,19,0,0,0,0,18,0,0,0,0,0,0,0,0,6,0,0,0,0,0,0,27,0,0,0,31,36,0,0,0,0,0|
35,34,36,0,31,0,0,0,0,30,0,26,0,0,0,0,19,0,0,0,0,15,17,0,12,0,0,0,0,0,0,0,0,4,2,0|
0,0,18,14,0,0,19,0,23,24,0,20,0,0,0,0,0,0,0,7,0,0,0,8,36,0,0,0,0,29,25,0,0,27,0,0|
0,0,0,0,0,0,0,0,0,0,34,32,0,0,0,0,0,0,0,0,22,0,23,0,0,0,0,0,0,0,0,9,0,10,0,0|
0,0,0,35,36,0,0,0,0,0,0,0,0,0,0,16,0,0,13,0,0,0,0,0,0,0,0,7,0,0,0,0,0,0,0,2|
0,17,0,0,0,0,24,0,0,0,0,0,5,0,0,0,10,1,3,0,0,0,0,0,0,0,0,0,0,0,31,25,0,0,0,0|
0,0,0,0,24,20,0,18,0,0,17,21,7,0,0,0,0,0,0,0,0,0,0,0,0,0,0,0,0,0,0,28,0,0,0,0|
0,0,1,0,0,6,0,0,0,0,0,0,0,30,33,0,34,0,0,0,0,32,0,35,0,21,0,0,0,0,15,0,24,0,23,0|
0,0,0,0,0,0,0,0,0,0,5,0,0,0,0,0,0,0,25,0,0,0,26,33,15,0,0,19,0,0,0,18,0,0,21,0|
0,0,0,0,0,0,36,32,0,0,31,0,17,0,0,0,0,0,0,0,19,0,16,0,1,0,0,0,0,2,0,0,0,7,0,0|
0,0,0,28,0,0,29,0,33,0,0,30,0,13,16,0,0,20,22,0,0,23,0,0,0,0,3,0,0,0,0,0,0,12,0,0|
19,0,0,16,0,13,0,0,0,0,0,0,0,0,0,0,0,0,0,5,0,0,9,0,0,0,32,36,0,0,0,0,0,0,0,0|
0,0,0,18,0,0,15,0,0,0,14,0,0,0,0,9,0,0,0,3,0,0,0,4,0,28,0,0,0,0,0,0,36,0,0,0|
0,0,0,0,0,0,0,0,0,8,0,0,0,0,0,0,29,0,0,0,0,0,31,0,0,18,17,0,0,0,0,0,0,0,0,0|
0,0,0,0,0,0,0,0,0,0,0,28,24,0,0,0,0,0,0,0,0,0,0,0,10,0,0,0,0,9,0,0,0,2,0,0|
0,0,8,0,0,1,0,0,0,0,0,0,0,0,0,31,0,0,0,0,0,0,0,0,0,0,0,0,0,0,22,23,0,0,0,0|
0,0,0,0,16,0,0,0,0,21,0,0,0,0,0,0,0,7,0,0,0,0,0,0,0,0,36,0,29,28,0,0,0,25,33,35|
0,0,0,0,0,26,30,0,0,0,35,0,0,0,15,0,0,0,21,0,0,0,22,0,0,0,0,0,0,8,0,0,0,0,5,10|
10,11,0,0,0,0,0,0,0,0,0,3,35,36,0,0,0,0,31,28,0,0,0,0,21,0,0,0,0,0,0,0,16,0,15,0|
0,0,0,3,4,0,6,0,0,0,0,0,0,0,0,0,0,0,33,30,0,36,0,29,19,0,0,0,0,20,0,0,0,0,0,0|
0,0,21,0,0,24,0,14,20,0,0,15,0,0,5,0,6,0,0,0,0,0,0,0,0,0,0,0,0,0,0,0,0,0,0,0|
0,35,0,0,30,0,0,0,0,0,0,0,0,24,17,22,0,0,19,0,0,0,0,0,9,5,0,0,0,0,7,2,0,0,0,0|
0,0,0,25,0,28,0,0,36,0,33,0,0,16,13,18,0,0,0,0,0,22,0,0,0,0,0,0,0,0,0,10,8,9,7,0|
0,15,17,0,14,0,20,0,0,23,0,0,3,0,1,6,0,0,0,8,0,0,12,0,0,0,0,29,0,0,0,36,0,0,0,0|
0,0,0,0,0,0,0,16,18,0,15,0,0,0,0,0,8,0,0,2,0,0,6,0,0,0,0,30,31,0,0,35,25,0,0,0|
0,0,0,0,32,34,0,0,0,29,0,0,21,0,0,0,20,0,17,0,0,0,0,0,0,0,0,0,0,0,5,0,0,3,0,0|
6,0,5,0,0,0,0,0,0,0,0,0,0,0,25,0,0,0,0,0,0,0,36,0,0,0,0,0,0,0,23,0,0,0,0,0|
0,0,11,0,0,0,0,4,0,0,0,1,33,0,31,0,32,0,0,0,0,0,0,0,0,0,0,21,0,0,0,16,0,0,0,18|];